Problem:    
Rows:       256
Columns:    89 (72 integer, 72 binary)
Non-zeros:  800
Status:     INTEGER OPTIMAL
Objective:  value = 75.355311 (MINimum)

   No.   Row name        Activity     Lower bound   Upper bound
------ ------------    ------------- ------------- -------------
     1 r.5                   1075.36             0               
     2 r.6                  -982.586      -991.234               
     3 r.7                   75.3553             0               
     4 r.8                      19.1      -976.574               
     5 r.9                   1075.36             0               
     6 r.10                 -948.504      -990.744               
     7 r.11                  75.3553             0               
     8 r.12                  51.4959      -975.432               
     9 r.13                  1075.36             0               
    10 r.14                  -957.76      -983.554               
    11 r.15                  75.3553             0               
    12 r.16                  51.4959      -957.591               
    13 r.17                  1075.36             0               
    14 r.18                 -974.206       -991.62               
    15 r.19                  75.3553             0               
    16 r.20                 -977.584      -978.033               
    17 r.21                  1075.36             0               
    18 r.22                 -991.352      -991.801               
    19 r.23                  75.3553             0               
    20 r.24                     19.1      -979.071               
    21 r.25                  1075.36             0               
    22 r.26                 -999.551      -999.551               
    23 r.27                  75.3553             0               
    24 r.28                   0.4489      -999.067               
    25 r.29                  75.3553             0               
    26 r.30                 -956.012      -975.111               
    27 r.31                  1075.36             0               
    28 r.32                 -924.645      -943.745               
    29 r.33                  1075.36             0               
    30 r.34                 -924.645      -976.141               
    31 r.35                  75.3553             0               
    32 r.36                  75.3553      -943.727               
    33 r.37                        1             1             = 
    34 r.38                        1             1             = 
    35 r.39                        1             1             = 
    36 r.40                        1             1             = 
    37 r.41                        1             1             = 
    38 r.42                        1             1             = 
    39 r.43                        1             1             = 
    40 r.44                        1             1             = 
    41 r.45                        2             2               
    42 r.46                       -2         -1001               
    43 r.47                 -965.918      -990.744               
    44 r.48                     1000             2               
    45 r.49                    -1000         -1001               
    46 r.50                   2032.4      -975.432               
    47 r.51                        2             2               
    48 r.52                       -2         -1001               
    49 r.53                 -975.174      -983.554               
    50 r.54                     1000             2               
    51 r.55                    -1000         -1001               
    52 r.56                   2032.4      -957.591               
    53 r.57                        2             2               
    54 r.58                       -2         -1001               
    55 r.59                  -991.62       -991.62               
    56 r.60                     1000             2               
    57 r.61                    -1000         -1001               
    58 r.62                  1003.32      -978.033               
    59 r.63                        2             2               
    60 r.64                       -2         -1001               
    61 r.65                  -8.7659      -991.801               
    62 r.66                     1000             2               
    63 r.67                    -1000         -1001               
    64 r.68                     2000      -979.071               
    65 r.69                 -983.035      -991.234               
    66 r.70                  18.6511      -976.574               
    67 r.71                 -983.035      -991.234               
    68 r.72                  18.6511      -976.574               
    69 r.73                 -973.426      -975.111               
    70 r.74                 -942.059      -943.745               
    71 r.75                 -975.111      -975.111               
    72 r.76                 -943.745      -943.745               
    73 r.77                        2             2               
    74 r.78                       -2         -1001               
    75 r.79                 -942.059      -976.141               
    76 r.80                     1000             2               
    77 r.81                    -1000         -1001               
    78 r.82                  2056.26      -943.727               
    79 r.83                        2             2               
    80 r.84                       -2         -1001               
    81 r.85                  965.918        8.7659               
    82 r.86                     1000             2               
    83 r.87                    -1000         -1001               
    84 r.88                   1967.6       23.4264               
    85 r.89                        2             2               
    86 r.90                       -2         -1001               
    87 r.91                 -9.25577      -983.554               
    88 r.92                     1000             2               
    89 r.93                    -1000         -1001               
    90 r.94                     2000      -957.591               
    91 r.95                        2             2               
    92 r.96                       -2         -1001               
    93 r.97                 -25.7018       -991.62               
    94 r.98                     1000             2               
    95 r.99                    -1000         -1001               
    96 r.100                  970.92      -978.033               
    97 r.101                       2             2               
    98 r.102                      -2         -1001               
    99 r.103                -42.8477      -991.801               
   100 r.104                    1000             2               
   101 r.105                   -1000         -1001               
   102 r.106                  1967.6      -979.071               
   103 r.107                -948.953      -990.744               
   104 r.108                  51.047      -975.432               
   105 r.109                -948.953      -990.744               
   106 r.110                  51.047      -975.432               
   107 r.111                    1001             2               
   108 r.112                   -1001         -1001               
   109 r.113                 992.493      -975.111               
   110 r.114                    1001             2               
   111 r.115                   -1001         -1001               
   112 r.116                 2023.86      -943.745               
   113 r.117                -976.141      -976.141               
   114 r.118                 23.8594      -943.727               
   115 r.119                -976.141      -976.141               
   116 r.120                 23.8594      -943.727               
   117 r.121                       2             2               
   118 r.122                      -2         -1001               
   119 r.123                 975.174        8.7659               
   120 r.124                    1000             2               
   121 r.125                   -1000         -1001               
   122 r.126                  1967.6       23.4264               
   123 r.127                       2             2               
   124 r.128                      -2         -1001               
   125 r.129                 9.25577       9.25577               
   126 r.130                    1000             2               
   127 r.131                   -1000         -1001               
   128 r.132                    2000       24.5679               
   129 r.133                -983.554      -983.554               
   130 r.134                 25.7018      -957.591               
   131 r.135                 19.8242      -983.554               
   132 r.136                 1029.08      -957.591               
   133 r.137                       2             2               
   134 r.138                      -2         -1001               
   135 r.139                -33.5919      -991.801               
   136 r.140                    1000             2               
   137 r.141                   -1000         -1001               
   138 r.142                  1967.6      -979.071               
   139 r.143                -958.209      -983.554               
   140 r.144                  51.047      -957.591               
   141 r.145                -958.209      -983.554               
   142 r.146                  51.047      -957.591               
   143 r.147                    1001             2               
   144 r.148                   -1001         -1001               
   145 r.149                 1001.75      -975.111               
   146 r.150                    1001             2               
   147 r.151                   -1001         -1001               
   148 r.152                 2023.86      -943.745               
   149 r.153                -966.885      -976.141               
   150 r.154                 33.1152      -943.727               
   151 r.155                -976.141      -976.141               
   152 r.156                 23.8594      -943.727               
   153 r.157                       2             2               
   154 r.158                      -2         -1001               
   155 r.159                  991.62        8.7659               
   156 r.160                    1000             2               
   157 r.161                   -1000         -1001               
   158 r.162                 2996.68       23.4264               
   159 r.163                       2             2               
   160 r.164                      -2         -1001               
   161 r.165                 25.7018       9.25577               
   162 r.166                    1000             2               
   163 r.167                   -1000         -1001               
   164 r.168                 3029.08       24.5679               
   165 r.169                       2             2               
   166 r.170                      -2         -1001               
   167 r.171                -17.1459      -991.801               
   168 r.172                    1000             2               
   169 r.173                   -1000         -1001               
   170 r.174                 2996.68      -979.071               
   171 r.175                -974.655       -991.62               
   172 r.176                -978.033      -978.033               
   173 r.177                -974.655       -991.62               
   174 r.178                -978.033      -978.033               
   175 r.179                    1001             2               
   176 r.180                   -1001         -1001               
   177 r.181                 1018.19      -975.111               
   178 r.182                    1001             2               
   179 r.183                   -1001         -1001               
   180 r.184                 3052.94      -943.745               
   181 r.185                -950.439      -976.141               
   182 r.186                 49.5612      -943.727               
   183 r.187                 52.9393      -976.141               
   184 r.188                 1052.94      -943.727               
   185 r.189                       2             2               
   186 r.190                      -2         -1001               
   187 r.191                  8.7659        8.7659               
   188 r.192                    1000             2               
   189 r.193                   -1000         -1001               
   190 r.194                    2000       23.4264               
   191 r.195                       2             2               
   192 r.196                      -2         -1001               
   193 r.197                 42.8477       9.25577               
   194 r.198                    1000             2               
   195 r.199                   -1000         -1001               
   196 r.200                  2032.4       24.5679               
   197 r.201                       2             2               
   198 r.202                      -2         -1001               
   199 r.203                 33.5919        16.446               
   200 r.204                    1000             2               
   201 r.205                   -1000         -1001               
   202 r.206                  2032.4       42.4087               
   203 r.207                       2             2               
   204 r.208                      -2         -1001               
   205 r.209                 17.1459          8.38               
   206 r.210                    1000             2               
   207 r.211                   -1000         -1001               
   208 r.212                 1003.32       21.9671               
   209 r.213                -991.801      -991.801               
   210 r.214                 18.6511      -979.071               
   211 r.215                -991.801      -991.801               
   212 r.216                 18.6511      -979.071               
   213 r.217                 -964.66      -975.111               
   214 r.218                -933.293      -943.745               
   215 r.219                -975.111      -975.111               
   216 r.220                -943.745      -943.745               
   217 r.221                -933.293      -976.141               
   218 r.222                 66.7071      -943.727               
   219 r.223                -943.745      -976.141               
   220 r.224                 56.2554      -943.727               
   221 r.225                    1001             2               
   222 r.226                   -1001         -1001               
   223 r.227                 3007.51       9.25577               
   224 r.228                    1001             2               
   225 r.229                   -1001         -1001               
   226 r.230                 1976.14       24.5679               
   227 r.231                    1001             2               
   228 r.232                   -1001         -1001               
   229 r.233                 2998.25        16.446               
   230 r.234                    1001             2               
   231 r.235                   -1001         -1001               
   232 r.236                 1976.14       42.4087               
   233 r.237                    1001             2               
   234 r.238                   -1001         -1001               
   235 r.239                 2981.81          8.38               
   236 r.240                    1001             2               
   237 r.241                   -1001         -1001               
   238 r.242                 947.061       21.9671               
   239 r.243                    1001             2               
   240 r.244                   -1001         -1001               
   241 r.245                 3031.37      -976.141               
   242 r.246                    1001             2               
   243 r.247                   -1001         -1001               
   244 r.248                    2000      -943.727               
   245 r.249                       2             2               
   246 r.250                      -2         -1001               
   247 r.251                 942.059        8.7659               
   248 r.252                    1000             2               
   249 r.253                   -1000         -1001               
   250 r.254                 1943.74       23.4264               
   251 r.255                    1001             2               
   252 r.256                   -1001         -1001               
   253 r.257                 968.633       24.8885               
   254 r.258                    1001             2               
   255 r.259                   -1001         -1001               
   256 r.260                    2000       56.2553               

   No. Column name       Activity     Lower bound   Upper bound
------ ------------    ------------- ------------- -------------
     1 tt                    75.3553             0               
     2 s_1_1        *              1             0             1 
     3 t_1_1                 57.9412             0               
     4 s_1_7        *              0             0             1 
     5 s_2_1        *              0             0             1 
     6 t_2_1                 56.2554             0               
     7 s_2_7        *              1             0             1 
     8 s_1_2        *              1             0             1 
     9 t_1_2                 23.8594             0               
    10 s_1_8        *              1             0             1 
    11 s_2_2        *              0             0             1 
    12 t_2_2                 23.8594             0               
    13 s_2_8        *              0             0             1 
    14 s_1_3        *              1             0             1 
    15 t_1_3                 33.1152             0               
    16 s_2_3        *              0             0             1 
    17 t_2_3                 23.8594             0               
    18 s_1_4        *              1             0             1 
    19 t_1_4                 49.5612             0               
    20 s_2_4        *              0             0             1 
    21 t_2_4                 1052.94             0               
    22 s_1_5        *              1             0             1 
    23 t_1_5                 66.7071             0               
    24 s_2_5        *              0             0             1 
    25 t_2_5                 56.2554             0               
    26 s_1_6        *              1             0             1 
    27 t_1_6                 74.9064             0               
    28 s_2_6        *              0             0             1 
    29 t_2_6                 74.9064             0               
    30 t_1_7                 1031.37             0               
    31 t_2_7                       0             0               
    32 t_1_8                       0             0               
    33 t_2_8                       0             0               
    34 r_1_1_2      *              0             0             1 
    35 u_1_1_2      *              1             0             1 
    36 r_2_1_2      *              1             0             1 
    37 u_2_1_2      *              0             0             1 
    38 r_1_1_3      *              0             0             1 
    39 u_1_1_3      *              1             0             1 
    40 r_2_1_3      *              1             0             1 
    41 u_2_1_3      *              0             0             1 
    42 r_1_1_4      *              0             0             1 
    43 u_1_1_4      *              1             0             1 
    44 r_2_1_4      *              1             0             1 
    45 u_2_1_4      *              0             0             1 
    46 r_1_1_5      *              0             0             1 
    47 u_1_1_5      *              0             0             1 
    48 r_2_1_5      *              1             0             1 
    49 u_2_1_5      *              0             0             1 
    50 r_1_1_8      *              0             0             1 
    51 u_1_1_8      *              1             0             1 
    52 r_2_1_8      *              1             0             1 
    53 u_2_1_8      *              0             0             1 
    54 r_1_2_3      *              0             0             1 
    55 u_1_2_3      *              0             0             1 
    56 r_2_2_3      *              1             0             1 
    57 u_2_2_3      *              0             0             1 
    58 r_1_2_4      *              0             0             1 
    59 u_1_2_4      *              0             0             1 
    60 r_2_2_4      *              1             0             1 
    61 u_2_2_4      *              0             0             1 
    62 r_1_2_5      *              0             0             1 
    63 u_1_2_5      *              0             0             1 
    64 r_2_2_5      *              1             0             1 
    65 u_2_2_5      *              0             0             1 
    66 r_1_2_7      *              1             0             1 
    67 u_1_2_7      *              0             0             1 
    68 r_2_2_7      *              1             0             1 
    69 u_2_2_7      *              0             0             1 
    70 r_1_3_5      *              0             0             1 
    71 u_1_3_5      *              0             0             1 
    72 r_2_3_5      *              1             0             1 
    73 u_2_3_5      *              0             0             1 
    74 r_1_3_7      *              1             0             1 
    75 u_1_3_7      *              0             0             1 
    76 r_2_3_7      *              1             0             1 
    77 u_2_3_7      *              0             0             1 
    78 r_1_4_5      *              0             0             1 
    79 u_1_4_5      *              0             0             1 
    80 r_2_4_5      *              1             0             1 
    81 u_2_4_5      *              0             0             1 
    82 r_1_4_7      *              1             0             1 
    83 u_1_4_7      *              0             0             1 
    84 r_2_4_7      *              1             0             1 
    85 u_2_4_7      *              0             0             1 
    86 r_1_7_8      *              1             0             1 
    87 u_1_7_8      *              0             0             1 
    88 r_2_7_8      *              1             0             1 
    89 u_2_7_8      *              0             0             1 

Integer feasibility conditions:

KKT.PE: max.abs.err = 4.55e-13 on row 46
        max.rel.err = 1.11e-16 on row 46
        High quality

KKT.PB: max.abs.err = 1.14e-13 on row 113
        max.rel.err = 1.73e-16 on row 125
        High quality

End of output
